20 43
12 15 1
12 18 5
15 18 3
10 12 2
10 15 2
10 18 1
6 12 4
6 15 3
6 10 3
6 18 2
4 17 2
4 16 4
4 6 5
1 4 3
1 17 2
1 3 3
1 16 4
3 4 2
3 17 3
3 16 4
16 17 1
13 19 2
13 16 3
9 13 4
9 11 2
9 19 5
7 13 5
7 9 2
7 11 2
7 19 2
11 13 3
11 19 3
14 20 1
14 19 2
2 14 3
2 20 4
2 8 4
2 5 1
8 14 3
8 20 2
5 14 2
5 20 3
5 8 3
